Problem:    
Rows:       354
Columns:    129 (110 integer, 110 binary)
Non-zeros:  1125
Status:     INTEGER OPTIMAL
Objective:  value = 4.8491 (MINimum)

   No.   Row name        Activity     Lower bound   Upper bound
------ ------------    ------------- ------------- -------------
     1 r.5                         1             1             = 
     2 r.6                   1004.85             0               
     3 r.7                  -996.744      -999.473               
     4 r.8                    4.8491             0               
     5 r.9                    4.8491      -998.847               
     6 r.10                  1004.85             0               
     7 r.11                 -995.852      -999.107               
     8 r.12                   4.8491             0               
     9 r.13                   4.8491      -998.832               
    10 r.14                  1004.85             0               
    11 r.15                 -995.151      -999.299               
    12 r.16                   4.8491             0               
    13 r.17                   4.8491      -998.837               
    14 r.18                  1004.85             0               
    15 r.19                 -997.909      -999.098               
    16 r.20                   4.8491             0               
    17 r.21                   4.8491      -998.828               
    18 r.22                  1004.85             0               
    19 r.23                 -998.811      -999.037               
    20 r.24                   4.8491             0               
    21 r.25                   2.7284       -998.83               
    22 r.26                   4.8491             0               
    23 r.27                   3.2557      -998.461               
    24 r.28                  1004.85             0               
    25 r.29                 -997.116      -998.754               
    26 r.30                   4.8491             0               
    27 r.31                   4.1483      -998.303               
    28 r.32                  1004.85             0               
    29 r.33                 -995.852      -998.735               
    30 r.34                   4.8491             0               
    31 r.35                   1.6373      -997.625               
    32 r.36                  1004.85             0               
    33 r.37                 -998.363      -998.589               
    34 r.38                  1004.85             0               
    35 r.39                 -999.774      -999.774               
    36 r.40                   4.8491             0               
    37 r.41                    0.226      -998.827               
    38 r.42                        1             1             = 
    39 r.43                        1             1             = 
    40 r.44                        1             1             = 
    41 r.45                        1             1             = 
    42 r.46                        1             1             = 
    43 r.47                        1             1             = 
    44 r.48                        1             1             = 
    45 r.49                        1             1             = 
    46 r.50                        1             1             = 
    47 r.51                        2             2               
    48 r.52                       -2         -1001               
    49 r.53                 -999.107      -999.107               
    50 r.54                     1000             2               
    51 r.55                    -1000         -1001               
    52 r.56                     2000      -998.832               
    53 r.57                        2             2               
    54 r.58                       -2         -1001               
    55 r.59                 -998.407      -999.299               
    56 r.60                     1000             2               
    57 r.61                    -1000         -1001               
    58 r.62                     2000      -998.837               
    59 r.63                        2             2               
    60 r.64                       -2         -1001               
    61 r.65                  -1.1649      -999.098               
    62 r.66                     1000             2               
    63 r.67                    -1000         -1001               
    64 r.68                     2000      -998.828               
    65 r.69                 -997.934      -999.473               
    66 r.70                   3.6599      -998.847               
    67 r.71                 -999.473      -999.473               
    68 r.72                   2.1207      -998.847               
    69 r.73                     1001             2               
    70 r.74                    -1001         -1001               
    71 r.75                     2000      -998.461               
    72 r.76                     1001             2               
    73 r.77                    -1001         -1001               
    74 r.78                  1998.03      -998.754               
    75 r.79                     1001             2               
    76 r.80                    -1001         -1001               
    77 r.81                  2000.89      -998.303               
    78 r.82                     1001             2               
    79 r.83                    -1001         -1001               
    80 r.84                   1999.3      -998.735               
    81 r.85                     1001             2               
    82 r.86                    -1001         -1001               
    83 r.87                  1998.38      -997.625               
    84 r.88                     1001             2               
    85 r.89                    -1001         -1001               
    86 r.90                  1996.79      -998.589               
    87 r.91                        2             2               
    88 r.92                       -2         -1001               
    89 r.93                  999.107        0.5273               
    90 r.94                     1000             2               
    91 r.95                    -1000         -1001               
    92 r.96                     2000         1.153               
    93 r.97                        2             2               
    94 r.98                       -2         -1001               
    95 r.99                 -999.299      -999.299               
    96 r.100                    1000             2               
    97 r.101                   -1000         -1001               
    98 r.102                    2000      -998.837               
    99 r.103                       2             2               
   100 r.104                      -2         -1001               
   101 r.105                 -2.0575      -999.098               
   102 r.106                    1000             2               
   103 r.107                   -1000         -1001               
   104 r.108                    2000      -998.828               
   105 r.109                       2             2               
   106 r.110                      -2         -1001               
   107 r.111                 -2.9591      -999.037               
   108 r.112                    1000             2               
   109 r.113                   -1000         -1001               
   110 r.114                 1997.88       -998.83               
   111 r.115                -999.107      -999.107               
   112 r.116                  1.5934      -998.832               
   113 r.117                -998.735      -999.107               
   114 r.118                  1.9654      -998.832               
   115 r.119                    1001             2               
   116 r.120                   -1001         -1001               
   117 r.121                    2000      -998.303               
   118 r.122                    1001             2               
   119 r.123                   -1001         -1001               
   120 r.124                  1999.3      -998.735               
   121 r.125                       2             2               
   122 r.126                      -2         -1001               
   123 r.127                 998.407        0.5273               
   124 r.128                    1000             2               
   125 r.129                   -1000         -1001               
   126 r.130                    2000         1.153               
   127 r.131                       2             2               
   128 r.132                      -2         -1001               
   129 r.133                 999.299        0.8926               
   130 r.134                    1000             2               
   131 r.135                   -1000         -1001               
   132 r.136                    2000        1.1676               
   133 r.137                       2             2               
   134 r.138                      -2         -1001               
   135 r.139                 -2.7583      -999.098               
   136 r.140                    1000             2               
   137 r.141                   -1000         -1001               
   138 r.142                    2000      -998.828               
   139 r.143                       2             2               
   140 r.144                      -2         -1001               
   141 r.145                 -3.6599      -999.037               
   142 r.146                    1000             2               
   143 r.147                   -1000         -1001               
   144 r.148                 1997.88       -998.83               
   145 r.149                    1001             2               
   146 r.150                   -1001         -1001               
   147 r.151                 1998.41      -998.461               
   148 r.152                    1001             2               
   149 r.153                   -1001         -1001               
   150 r.154                 1998.03      -998.754               
   151 r.155                -999.299      -999.299               
   152 r.156                  0.7008      -998.837               
   153 r.157                -999.299      -999.299               
   154 r.158                  0.7008      -998.837               
   155 r.159                    1001             2               
   156 r.160                   -1001         -1001               
   157 r.161                 1996.79      -997.625               
   158 r.162                    1001             2               
   159 r.163                   -1001         -1001               
   160 r.164                 1996.79      -998.589               
   161 r.165                       2             2               
   162 r.166                      -2         -1001               
   163 r.167                  1.1649        0.5273               
   164 r.168                    1000             2               
   165 r.169                   -1000         -1001               
   166 r.170                    2000         1.153               
   167 r.171                       2             2               
   168 r.172                      -2         -1001               
   169 r.173                  2.0575        0.8926               
   170 r.174                    1000             2               
   171 r.175                   -1000         -1001               
   172 r.176                    2000        1.1676               
   173 r.177                       2             2               
   174 r.178                      -2         -1001               
   175 r.179                  2.7583        0.7008               
   176 r.180                    1000             2               
   177 r.181                   -1000         -1001               
   178 r.182                    2000        1.1628               
   179 r.183                       2             2               
   180 r.184                      -2         -1001               
   181 r.185                 -0.9016      -999.037               
   182 r.186                    1000             2               
   183 r.187                   -1000         -1001               
   184 r.188                 1997.88       -998.83               
   185 r.189                    1001             2               
   186 r.190                   -1001         -1001               
   187 r.191                 2001.16      -998.461               
   188 r.192                    1001             2               
   189 r.193                   -1001         -1001               
   190 r.194                 1998.03      -998.754               
   191 r.195                    1001             2               
   192 r.196                   -1001         -1001               
   193 r.197                 2002.06      -998.303               
   194 r.198                    1001             2               
   195 r.199                   -1001         -1001               
   196 r.200                  1999.3      -998.735               
   197 r.201                    1001             2               
   198 r.202                   -1001         -1001               
   199 r.203                 1999.55      -997.625               
   200 r.204                    1001             2               
   201 r.205                   -1001         -1001               
   202 r.206                 1996.79      -998.589               
   203 r.207                -998.135      -999.098               
   204 r.208                  4.6231      -998.828               
   205 r.209                -998.135      -999.098               
   206 r.210                  4.6231      -998.828               
   207 r.211                       2             2               
   208 r.212                      -2         -1001               
   209 r.213                  2.9591        0.8926               
   210 r.214                    1000             2               
   211 r.215                   -1000         -1001               
   212 r.216                 2002.12        1.1676               
   213 r.217                       2             2               
   214 r.218                      -2         -1001               
   215 r.219                  3.6599        0.7008               
   216 r.220                    1000             2               
   217 r.221                   -1000         -1001               
   218 r.222                 2002.12        1.1628               
   219 r.223                       2             2               
   220 r.224                      -2         -1001               
   221 r.225                  0.9016        0.9016               
   222 r.226                    1000             2               
   223 r.227                   -1000         -1001               
   224 r.228                 2002.12         1.172               
   225 r.229                    1001             2               
   226 r.230                   -1001         -1001               
   227 r.231                 2002.07      -998.461               
   228 r.232                    1001             2               
   229 r.233                   -1001         -1001               
   230 r.234                 2000.16      -998.754               
   231 r.235                    1001             2               
   232 r.236                   -1001         -1001               
   233 r.237                 2002.96      -998.303               
   234 r.238                    1001             2               
   235 r.239                   -1001         -1001               
   236 r.240                 2001.42      -998.735               
   237 r.241                    1001             2               
   238 r.242                   -1001         -1001               
   239 r.243                 2000.45      -997.625               
   240 r.244                    1001             2               
   241 r.245                   -1001         -1001               
   242 r.246                 1998.91      -998.589               
   243 r.247                -999.037      -999.037               
   244 r.248                  2.5024       -998.83               
   245 r.249                -999.037      -999.037               
   246 r.250                  2.5024       -998.83               
   247 r.251                    1001             2               
   248 r.252                   -1001         -1001               
   249 r.253                    2000        0.5273               
   250 r.254                    1001             2               
   251 r.255                   -1001         -1001               
   252 r.256                 2001.97         1.153               
   253 r.257                    1001             2               
   254 r.258                   -1001         -1001               
   255 r.259                 2001.59        0.7008               
   256 r.260                    1001             2               
   257 r.261                   -1001         -1001               
   258 r.262                 2001.97        1.1628               
   259 r.263                    1001             2               
   260 r.264                   -1001         -1001               
   261 r.265                 1998.84        0.9016               
   262 r.266                    1001             2               
   263 r.267                   -1001         -1001               
   264 r.268                 2001.97         1.172               
   265 r.269                    1001             2               
   266 r.270                   -1001         -1001               
   267 r.271                 1997.93        0.9632               
   268 r.272                    1001             2               
   269 r.273                   -1001         -1001               
   270 r.274                 1999.84        1.1698               
   271 r.275                    1000             2               
   272 r.276                   -1000         -1001               
   273 r.277                 2000.89      -998.303               
   274 r.278                       2             2               
   275 r.279                      -2         -1001               
   276 r.280                -998.735      -998.735               
   277 r.281                  1.6184      -998.461               
   278 r.282                -998.754      -998.754               
   279 r.283                  1.6184      -998.461               
   280 r.284                -998.754      -998.754               
   281 r.285                    1001             2               
   282 r.286                   -1001         -1001               
   283 r.287                 1999.11        0.5273               
   284 r.288                    1001             2               
   285 r.289                   -1001         -1001               
   286 r.290                  2000.7         1.153               
   287 r.291                    1001             2               
   288 r.292                   -1001         -1001               
   289 r.293                    2000        0.8926               
   290 r.294                    1001             2               
   291 r.295                   -1001         -1001               
   292 r.296                  2000.7        1.1676               
   293 r.297                    1001             2               
   294 r.298                   -1001         -1001               
   295 r.299                 1997.94        0.9016               
   296 r.300                    1001             2               
   297 r.301                   -1001         -1001               
   298 r.302                  2000.7         1.172               
   299 r.303                    1001             2               
   300 r.304                   -1001         -1001               
   301 r.305                 1997.04        0.9632               
   302 r.306                    1001             2               
   303 r.307                   -1001         -1001               
   304 r.308                 1998.58        1.1698               
   305 r.309                    1000             2               
   306 r.310                   -1000         -1001               
   307 r.311                 1999.11        1.5393               
   308 r.312                       2             2               
   309 r.313                      -2         -1001               
   310 r.314                 998.735        1.2464               
   311 r.315                    1000             2               
   312 r.316                   -1000         -1001               
   313 r.317                 1997.49      -997.625               
   314 r.318                       2             2               
   315 r.319                      -2         -1001               
   316 r.320                  -2.511      -998.589               
   317 r.321                  3.9223      -998.303               
   318 r.322                -996.078      -998.735               
   319 r.323                  3.9223      -998.303               
   320 r.324                -996.078      -998.735               
   321 r.325                    1001             2               
   322 r.326                   -1001         -1001               
   323 r.327                 2001.62        0.5273               
   324 r.328                    1001             2               
   325 r.329                   -1001         -1001               
   326 r.330                 2003.21         1.153               
   327 r.331                    1001             2               
   328 r.332                   -1001         -1001               
   329 r.333                 2003.21        0.7008               
   330 r.334                    1001             2               
   331 r.335                   -1001         -1001               
   332 r.336                 2003.21        1.1628               
   333 r.337                    1001             2               
   334 r.338                   -1001         -1001               
   335 r.339                 2000.45        0.9016               
   336 r.340                    1001             2               
   337 r.341                   -1001         -1001               
   338 r.342                 2003.21         1.172               
   339 r.343                    1001             2               
   340 r.344                   -1001         -1001               
   341 r.345                 1999.55        0.9632               
   342 r.346                    1001             2               
   343 r.347                   -1001         -1001               
   344 r.348                 2001.09        1.1698               
   345 r.349                    1000             2               
   346 r.350                   -1000         -1001               
   347 r.351                 2002.51        1.6967               
   348 r.352                       2             2               
   349 r.353                      -2         -1001               
   350 r.354                   2.511        1.2646               
   351 r.355                  1.4113      -997.625               
   352 r.356                -998.589      -998.589               
   353 r.357                  1.4113      -997.625               
   354 r.358                -998.589      -998.589               

   No. Column name       Activity     Lower bound   Upper bound
------ ------------    ------------- ------------- -------------
     1 tt                     4.8491             0               
     2 s_1_9        *              1             0             1 
     3 s_1_1        *              1             0             1 
     4 t_1_1                  1.5934             0               
     5 s_2_1        *              0             0             1 
     6 t_2_1                       0             0               
     7 s_1_2        *              1             0             1 
     8 t_1_2                  0.7008             0               
     9 s_2_2        *              0             0             1 
    10 t_2_2                       0             0               
    11 s_1_3        *              1             0             1 
    12 t_1_3                       0             0               
    13 s_2_3        *              0             0             1 
    14 t_2_3                       0             0               
    15 s_1_4        *              1             0             1 
    16 t_1_4                  2.7583             0               
    17 s_2_4        *              0             0             1 
    18 t_2_4                       0             0               
    19 s_1_5        *              1             0             1 
    20 t_1_5                  3.6599             0               
    21 s_2_5        *              0             0             1 
    22 t_2_5                  2.1207             0               
    23 s_1_6        *              0             0             1 
    24 t_1_6                  1.5934             0               
    25 s_2_6        *              1             0             1 
    26 t_2_6                  1.9654             0               
    27 s_1_7        *              0             0             1 
    28 t_1_7                  0.7008             0               
    29 s_2_7        *              1             0             1 
    30 t_2_7                  0.7008             0               
    31 s_1_8        *              0             0             1 
    32 t_1_8                  3.2118             0               
    33 s_2_8        *              1             0             1 
    34 t_2_8                  3.2118             0               
    35 t_1_9                  4.6231             0               
    36 s_2_9        *              0             0             1 
    37 t_2_9                  4.6231             0               
    38 r_1_1_2      *              0             0             1 
    39 u_1_1_2      *              1             0             1 
    40 r_2_1_2      *              1             0             1 
    41 u_2_1_2      *              0             0             1 
    42 r_1_1_3      *              0             0             1 
    43 u_1_1_3      *              1             0             1 
    44 r_2_1_3      *              1             0             1 
    45 u_2_1_3      *              0             0             1 
    46 r_1_1_4      *              0             0             1 
    47 u_1_1_4      *              0             0             1 
    48 r_2_1_4      *              1             0             1 
    49 u_2_1_4      *              0             0             1 
    50 r_1_1_6      *              1             0             1 
    51 u_1_1_6      *              0             0             1 
    52 r_2_1_6      *              1             0             1 
    53 u_2_1_6      *              0             0             1 
    54 r_1_1_7      *              1             0             1 
    55 u_1_1_7      *              0             0             1 
    56 r_2_1_7      *              1             0             1 
    57 u_2_1_7      *              0             0             1 
    58 r_1_1_8      *              1             0             1 
    59 u_1_1_8      *              0             0             1 
    60 r_2_1_8      *              1             0             1 
    61 u_2_1_8      *              0             0             1 
    62 r_1_2_3      *              0             0             1 
    63 u_1_2_3      *              1             0             1 
    64 r_2_2_3      *              1             0             1 
    65 u_2_2_3      *              0             0             1 
    66 r_1_2_4      *              0             0             1 
    67 u_1_2_4      *              0             0             1 
    68 r_2_2_4      *              1             0             1 
    69 u_2_2_4      *              0             0             1 
    70 r_1_2_5      *              0             0             1 
    71 u_1_2_5      *              0             0             1 
    72 r_2_2_5      *              1             0             1 
    73 u_2_2_5      *              0             0             1 
    74 r_1_2_7      *              1             0             1 
    75 u_1_2_7      *              0             0             1 
    76 r_2_2_7      *              1             0             1 
    77 u_2_2_7      *              0             0             1 
    78 r_1_3_4      *              0             0             1 
    79 u_1_3_4      *              0             0             1 
    80 r_2_3_4      *              1             0             1 
    81 u_2_3_4      *              0             0             1 
    82 r_1_3_5      *              0             0             1 
    83 u_1_3_5      *              0             0             1 
    84 r_2_3_5      *              1             0             1 
    85 u_2_3_5      *              0             0             1 
    86 r_1_3_6      *              1             0             1 
    87 u_1_3_6      *              0             0             1 
    88 r_2_3_6      *              1             0             1 
    89 u_2_3_6      *              0             0             1 
    90 r_1_3_8      *              1             0             1 
    91 u_1_3_8      *              0             0             1 
    92 r_2_3_8      *              1             0             1 
    93 u_2_3_8      *              0             0             1 
    94 r_1_4_5      *              0             0             1 
    95 u_1_4_5      *              0             0             1 
    96 r_2_4_5      *              1             0             1 
    97 u_2_4_5      *              0             0             1 
    98 r_1_4_6      *              1             0             1 
    99 u_1_4_6      *              0             0             1 
   100 r_2_4_6      *              1             0             1 
   101 u_2_4_6      *              0             0             1 
   102 r_1_4_7      *              1             0             1 
   103 u_1_4_7      *              0             0             1 
   104 r_2_4_7      *              1             0             1 
   105 u_2_4_7      *              0             0             1 
   106 r_1_4_8      *              1             0             1 
   107 u_1_4_8      *              0             0             1 
   108 r_2_4_8      *              1             0             1 
   109 u_2_4_8      *              0             0             1 
   110 r_1_5_6      *              1             0             1 
   111 u_1_5_6      *              0             0             1 
   112 r_2_5_6      *              1             0             1 
   113 u_2_5_6      *              0             0             1 
   114 r_1_5_7      *              1             0             1 
   115 u_1_5_7      *              0             0             1 
   116 r_2_5_7      *              1             0             1 
   117 u_2_5_7      *              0             0             1 
   118 r_1_5_8      *              1             0             1 
   119 u_1_5_8      *              0             0             1 
   120 r_2_5_8      *              1             0             1 
   121 u_2_5_8      *              0             0             1 
   122 r_1_6_7      *              1             0             1 
   123 u_1_6_7      *              0             0             1 
   124 r_2_6_7      *              0             0             1 
   125 u_2_6_7      *              1             0             1 
   126 r_1_7_8      *              1             0             1 
   127 u_1_7_8      *              0             0             1 
   128 r_2_7_8      *              0             0             1 
   129 u_2_7_8      *              0             0             1 

Integer feasibility conditions:

KKT.PE: max.abs.err = 2.27e-13 on row 77
        max.rel.err = 5.68e-17 on row 283
        High quality

KKT.PB: max.abs.err = 2.22e-16 on row 221
        max.rel.err = 1.17e-16 on row 221
        High quality

End of output
